sat
(
  (define-fun C5_VM12 () Int
    1)
  (define-fun C5_VM7 () Int
    0)
  (define-fun MemProv9 () Int
    15000)
  (define-fun VM9Type () Int
    186)
  (define-fun C3_VM10 () Int
    0)
  (define-fun ProcProv1 () Int
    4)
  (define-fun C3_VM13 () Int
    0)
  (define-fun C5_VM1 () Int
    0)
  (define-fun StorageProv9 () Int
    4000)
  (define-fun ProcProv13 () Int
    4)
  (define-fun VM11Type () Int
    136)
  (define-fun C5_VM3 () Int
    0)
  (define-fun PriceProv1 () Int
    210)
  (define-fun C3_VM9 () Int
    0)
  (define-fun C4_VM10 () Int
    0)
  (define-fun C5_VM13 () Int
    0)
  (define-fun C1_VM3 () Int
    1)
  (define-fun PriceProv2 () Int
    210)
  (define-fun C4_VM4 () Int
    0)
  (define-fun C4_VM3 () Int
    0)
  (define-fun C3_VM5 () Int
    0)
  (define-fun C5_VM9 () Int
    0)
  (define-fun StorageProv6 () Int
    4000)
  (define-fun ProcProv7 () Int
    4)
  (define-fun C3_VM1 () Int
    0)
  (define-fun C5_VM2 () Int
    0)
  (define-fun C5_VM6 () Int
    0)
  (define-fun ProcProv10 () Int
    2)
  (define-fun StorageProv11 () Int
    2000)
  (define-fun C2_VM3 () Int
    1)
  (define-fun StorageProv5 () Int
    4000)
  (define-fun StorageProv13 () Int
    4000)
  (define-fun PriceProv11 () Int
    460)
  (define-fun C3_VM7 () Int
    0)
  (define-fun PriceProv10 () Int
    126)
  (define-fun C3_VM12 () Int
    0)
  (define-fun C3_VM6 () Int
    0)
  (define-fun ProcProv11 () Int
    8)
  (define-fun MemProv10 () Int
    3750)
  (define-fun VM13Type () Int
    186)
  (define-fun MemProv2 () Int
    7500)
  (define-fun VM1Type () Int
    182)
  (define-fun ProcProv2 () Int
    4)
  (define-fun StorageProv2 () Int
    2000)
  (define-fun C4_VM1 () Int
    1)
  (define-fun StorageProv8 () Int
    4000)
  (define-fun C1_VM1 () Int
    0)
  (define-fun C2_VM1 () Int
    0)
  (define-fun StorageProv1 () Int
    2000)
  (define-fun VM4Type () Int
    186)
  (define-fun C2_VM9 () Int
    1)
  (define-fun PriceProv9 () Int
    379)
  (define-fun C3_VM3 () Int
    0)
  (define-fun C5_VM5 () Int
    0)
  (define-fun C3_VM8 () Int
    0)
  (define-fun C4_VM9 () Int
    0)
  (define-fun MemProv4 () Int
    15000)
  (define-fun PriceProv13 () Int
    379)
  (define-fun MemProv6 () Int
    15000)
  (define-fun C1_VM2 () Int
    0)
  (define-fun C3_VM11 () Int
    0)
  (define-fun PriceProv5 () Int
    379)
  (define-fun MemProv3 () Int
    15000)
  (define-fun ProcProv4 () Int
    4)
  (define-fun PriceProv4 () Int
    379)
  (define-fun ProcProv5 () Int
    4)
  (define-fun MemProv7 () Int
    7500)
  (define-fun C2_VM7 () Int
    0)
  (define-fun C2_VM8 () Int
    1)
  (define-fun C1_VM6 () Int
    1)
  (define-fun VM3Type () Int
    186)
  (define-fun C4_VM8 () Int
    0)
  (define-fun StorageProv12 () Int
    2000)
  (define-fun MemProv12 () Int
    15000)
  (define-fun C4_VM5 () Int
    0)
  (define-fun C2_VM4 () Int
    1)
  (define-fun C4_VM13 () Int
    0)
  (define-fun C2_VM11 () Int
    0)
  (define-fun C4_VM12 () Int
    0)
  (define-fun MemProv11 () Int
    15000)
  (define-fun C3_VM2 () Int
    0)
  (define-fun C2_VM10 () Int
    1)
  (define-fun PriceProv7 () Int
    210)
  (define-fun StorageProv7 () Int
    2000)
  (define-fun VM7Type () Int
    182)
  (define-fun C5_VM10 () Int
    0)
  (define-fun MemProv8 () Int
    15000)
  (define-fun StorageProv4 () Int
    4000)
  (define-fun C1_VM12 () Int
    1)
  (define-fun C4_VM11 () Int
    0)
  (define-fun StorageProv3 () Int
    4000)
  (define-fun C5_VM8 () Int
    0)
  (define-fun VM5Type () Int
    186)
  (define-fun C1_VM7 () Int
    0)
  (define-fun MemProv1 () Int
    7500)
  (define-fun ProcProv9 () Int
    4)
  (define-fun C1_VM4 () Int
    1)
  (define-fun C1_VM10 () Int
    0)
  (define-fun StorageProv10 () Int
    2000)
  (define-fun C4_VM7 () Int
    1)
  (define-fun C2_VM2 () Int
    0)
  (define-fun ProcProv12 () Int
    8)
  (define-fun PriceProv3 () Int
    379)
  (define-fun C4_VM6 () Int
    0)
  (define-fun C1_VM9 () Int
    1)
  (define-fun C4_VM2 () Int
    1)
  (define-fun PriceProv8 () Int
    379)
  (define-fun C1_VM13 () Int
    1)
  (define-fun C2_VM12 () Int
    0)
  (define-fun C1_VM5 () Int
    1)
  (define-fun VM2Type () Int
    182)
  (define-fun VM6Type () Int
    186)
  (define-fun C1_VM8 () Int
    1)
  (define-fun PriceProv12 () Int
    460)
  (define-fun VM8Type () Int
    186)
  (define-fun C2_VM6 () Int
    1)
  (define-fun C2_VM13 () Int
    1)
  (define-fun ProcProv3 () Int
    4)
  (define-fun C5_VM4 () Int
    0)
  (define-fun VM12Type () Int
    136)
  (define-fun C2_VM5 () Int
    1)
  (define-fun C3_VM4 () Int
    0)
  (define-fun MemProv5 () Int
    15000)
  (define-fun C1_VM11 () Int
    1)
  (define-fun ProcProv6 () Int
    4)
  (define-fun VM10Type () Int
    225)
  (define-fun PriceProv6 () Int
    379)
  (define-fun C5_VM11 () Int
    1)
  (define-fun MemProv13 () Int
    15000)
  (define-fun ProcProv8 () Int
    4)
)
(objectives
 ( 3602)
 ((+ 0
   PriceProv1
   PriceProv2
   PriceProv3
   PriceProv4
   PriceProv5
   PriceProv6
   PriceProv7
   PriceProv8
   PriceProv9
   PriceProv10
   PriceProv11
   PriceProv12
   PriceProv13) 4329)
)
(:added-eqs                   30604121
 :arith-eq-adapter            64472388
 :arith-bound-propagations-lp 5600356
 :arith-conflicts             740
 :arith-diseq                 89759798
 :arith-fixed-eqs             343236
 :arith-lower                 106467185
 :arith-make-feasible         11360891
 :arith-max-columns           435
 :arith-max-rows              41
 :arith-upper                 82559668
 :binary-propagations         262013695
 :bv-bit2core                 2057906
 :bv-dynamic-diseqs           88870623
 :bv-dynamic-eqs              40
 :bv->core-eq                 19561
 :conflicts                   371148
 :decisions                   39604691
 :del-clause                  140538700
 :final-checks                7366
 :max-memory                  685.02
 :maxsat-cores                3538
 :memory                      672.08
 :minimized-lits              4331910
 :mk-bool-var                 60876676
 :mk-clause                   140543196
 :mk-clause-binary            29259
 :num-allocs                  197466738215988.00
 :num-checks                  14135
 :pb-conflicts                26665
 :pb-predicates               7
 :pb-propagations             530535
 :pb-resolves                 2259
 :propagations                558138326
 :restarts                    1963
 :rlimit-count                3348619252
 :time                        513.26
 :total-time                  510.38)
